c This is an instance of the exact track of PACE 2020 Challenge, see https://pacechallenge.org/2020/ 
c TYPE: generated 
c ORIGIN: Python networkx package 
c DESCRIPTION: A cycle graph on p nodes with chords joining each vertex x to its inverse modulo p. This graph is a (mildly explicit) 3-regular expander. Generated using chordal_cycle_graph function from Python’s networkx package 
p tdp 151 223
1 2
1 3
2 113
3 4
4 5
4 6
5 7
5 8
6 111
6 84
7 9
7 10
8 112
8 132
9 11
9 12
10 68
10 60
11 13
11 14
12 144
12 52
13 15
13 16
14 56
14 76
15 17
15 18
16 48
16 138
17 19
17 20
18 35
18 38
19 21
19 22
20 118
20 34
21 23
21 24
22 102
22 131
23 25
23 26
24 30
24 88
25 27
25 28
26 96
26 94
27 29
27 30
28 122
28 126
29 31
29 32
30 85
31 33
31 34
32 130
32 103
33 35
33 36
34 109
35 37
36 100
36 116
37 70
37 72
38 39
38 40
39 41
39 42
40 101
40 104
41 43
41 44
42 65
42 68
43 45
43 46
44 132
44 134
45 47
45 48
46 75
46 77
47 49
47 50
48 136
49 51
49 52
50 74
50 58
51 53
52 148
53 54
54 55
54 56
55 57
55 58
56 149
57 59
57 60
58 145
59 61
59 62
60 66
61 63
61 64
62 142
62 64
63 65
63 66
64 144
65 67
66 70
67 116
67 118
68 69
69 78
69 80
70 71
71 104
71 106
72 73
72 74
73 75
73 76
74 151
75 77
76 137
77 78
78 79
79 137
79 147
80 81
80 82
81 83
81 84
82 145
82 113
83 85
83 86
84 114
85 87
86 93
86 96
87 88
87 90
88 89
89 121
89 124
90 91
90 92
91 93
91 94
92 131
92 123
93 95
94 98
95 107
95 110
96 97
97 126
97 128
98 99
98 100
99 101
99 102
100 114
101 103
102 108
103 151
104 105
105 146
105 142
106 107
106 108
107 109
108 139
109 120
110 111
110 112
111 113
112 125
114 115
115 124
115 122
116 117
117 138
117 140
118 119
119 147
119 150
120 121
120 122
121 123
123 130
124 125
125 127
126 127
127 129
128 129
128 130
129 131
132 133
133 143
133 146
134 135
134 136
135 136
135 137
138 139
139 150
140 141
140 142
141 143
141 144
143 145
146 147
148 149
150 151
